c SAT Generator for power-law distributed variable frequencies
c -g u -v 20 -c 91 -k 3 -p 2.750000 -b 3.200000 -f /home/schmidt/Devel/ni-kop-sat/data/ensemble/ruf20-91/ruf20-91-758 -u 1 -U 1 -s 1098370628
p cnf 20 91
-5 -9 15 0
5 8 -10 0
2 -10 -11 0
-9 -12 -14 0
6 8 20 0
12 -18 -19 0
1 3 5 0
-6 18 -19 0
-2 -15 19 0
-11 14 -19 0
9 -13 -16 0
1 7 -15 0
5 -8 -12 0
9 -10 20 0
18 19 -20 0
13 16 19 0
-6 16 18 0
13 17 -20 0
2 -4 -8 0
-3 -4 10 0
1 6 -18 0
4 -8 9 0
1 -4 7 0
-6 7 8 0
-9 -12 13 0
-9 11 -16 0
-10 -12 18 0
-2 -7 12 0
9 13 -16 0
4 13 19 0
-6 10 -13 0
-1 -15 17 0
7 10 -13 0
8 12 -18 0
-5 -14 -16 0
-4 -12 -18 0
6 13 17 0
1 -3 -11 0
3 -6 -20 0
-6 -13 -20 0
3 -11 -18 0
5 -9 10 0
1 6 16 0
-15 16 20 0
-6 12 -18 0
9 12 -18 0
13 -16 -17 0
-6 -15 -20 0
-8 9 -16 0
-3 -4 -17 0
-2 -4 -6 0
7 11 -19 0
1 2 3 0
4 -16 -19 0
-6 -13 -14 0
-5 6 -15 0
-2 -13 15 0
1 -2 18 0
4 -17 18 0
7 -9 17 0
-13 17 18 0
-7 -8 -11 0
12 16 -20 0
11 -16 -18 0
3 -5 9 0
5 17 19 0
-3 -8 -16 0
10 15 -19 0
1 4 12 0
-1 -14 19 0
1 4 18 0
-4 -5 -17 0
7 16 18 0
-2 15 -18 0
-1 -2 -13 0
-11 -12 19 0
1 -8 11 0
3 -16 -20 0
-3 -9 -12 0
-5 -6 -20 0
4 -7 -15 0
-4 -5 -11 0
1 -2 -6 0
5 -9 -20 0
3 6 -17 0
-6 -12 20 0
-1 -5 9 0
-8 -16 20 0
-7 -9 -11 0
-1 -9 -14 0
3 -14 -20 0
